Welcome to the CBC MILP Solver 
Version: 2.10.3 
Build Date: Dec 15 2019 

command line - /home/cdmonsalvea/AI_OR_Workflow/.venv/lib/python3.10/site-packages/pulp/solverdir/cbc/linux/64/cbc /tmp/214ca8a963944a6d8ab973e1a2912d7e-pulp.mps -sec 3600 -timeMode elapsed -branch -printingOptions all -solution /tmp/214ca8a963944a6d8ab973e1a2912d7e-pulp.sol (default strategy 1)
At line 2 NAME          MODEL
At line 3 ROWS
At line 29 COLUMNS
At line 498 RHS
At line 523 BOUNDS
At line 536 ENDATA
Problem MODEL has 24 rows, 156 columns and 300 elements
Coin0008I MODEL read with 0 errors
seconds was changed from 1e+100 to 3600
Option for timeMode changed from cpu to elapsed
Continuous objective value is 3.13737e+06 - 0.00 seconds
Cgl0004I processed model has 24 rows, 156 columns (12 integer (12 of which binary)) and 300 elements
Cbc0038I Initial state - 12 integers unsatisfied sum - 1.00841
Cbc0038I Pass   1: suminf.    0.00841 (1) obj. 9.7283e+07 iterations 11
Cbc0038I Pass   2: suminf.    0.00841 (1) obj. 9.7283e+07 iterations 0
Cbc0038I Solution found of 1.00368e+08
Cbc0038I Relaxing continuous gives 9.88653e+07
Cbc0038I Before mini branch and bound, 0 integers at bound fixed and 121 continuous
Cbc0038I Full problem 24 rows 156 columns, reduced to 21 rows 31 columns
Cbc0038I Mini branch and bound improved solution from 9.88653e+07 to 3.65637e+07 (0.00 seconds)
Cbc0038I Freeing continuous variables gives a solution of 3.5158e+07
Cbc0038I Round again with cutoff of 3.19559e+07
Cbc0038I Pass   3: suminf.    1.00841 (10) obj. 3.19559e+07 iterations 12
Cbc0038I Pass   4: suminf.    0.45268 (3) obj. 3.19559e+07 iterations 12
Cbc0038I Pass   5: suminf.    0.27124 (2) obj. 3.19559e+07 iterations 3
Cbc0038I Pass   6: suminf.    0.05641 (1) obj. 3.19559e+07 iterations 2
Cbc0038I Pass   7: suminf.    0.27124 (2) obj. 3.19559e+07 iterations 2
Cbc0038I Pass   8: suminf.    0.03857 (1) obj. 3.19559e+07 iterations 4
Cbc0038I Pass   9: suminf.    0.03856 (2) obj. 3.19559e+07 iterations 3
Cbc0038I Pass  10: suminf.    0.27124 (2) obj. 3.19559e+07 iterations 3
Cbc0038I Pass  11: suminf.    0.05155 (1) obj. 3.19559e+07 iterations 5
Cbc0038I Pass  12: suminf.    0.04492 (2) obj. 3.19559e+07 iterations 3
Cbc0038I Pass  13: suminf.    0.11760 (3) obj. 3.19559e+07 iterations 3
Cbc0038I Pass  14: suminf.    0.09258 (3) obj. 3.19559e+07 iterations 10
Cbc0038I Pass  15: suminf.    0.11760 (3) obj. 3.19559e+07 iterations 6
Cbc0038I Pass  16: suminf.    0.17992 (3) obj. 3.19559e+07 iterations 6
Cbc0038I Pass  17: suminf.    0.29864 (3) obj. 3.19559e+07 iterations 7
Cbc0038I Pass  18: suminf.    0.27124 (2) obj. 3.19559e+07 iterations 3
Cbc0038I Pass  19: suminf.    0.05641 (1) obj. 3.19559e+07 iterations 2
Cbc0038I Pass  20: suminf.    0.27124 (2) obj. 3.19559e+07 iterations 2
Cbc0038I Pass  21: suminf.    0.10835 (2) obj. 3.19559e+07 iterations 4
Cbc0038I Pass  22: suminf.    0.27124 (2) obj. 3.19559e+07 iterations 4
Cbc0038I Pass  23: suminf.    0.17235 (3) obj. 3.19559e+07 iterations 8
Cbc0038I Pass  24: suminf.    0.27124 (2) obj. 3.19559e+07 iterations 6
Cbc0038I Pass  25: suminf.    0.07109 (2) obj. 3.19559e+07 iterations 1
Cbc0038I Pass  26: suminf.    0.27124 (2) obj. 3.19559e+07 iterations 2
Cbc0038I Pass  27: suminf.    0.05641 (1) obj. 3.19559e+07 iterations 2
Cbc0038I Pass  28: suminf.    0.27124 (2) obj. 3.19559e+07 iterations 2
Cbc0038I Pass  29: suminf.    0.07443 (3) obj. 3.19559e+07 iterations 3
Cbc0038I Pass  30: suminf.    0.09977 (4) obj. 3.19559e+07 iterations 11
Cbc0038I Pass  31: suminf.    0.47699 (3) obj. 3.19559e+07 iterations 7
Cbc0038I Pass  32: suminf.    0.27124 (2) obj. 3.19559e+07 iterations 3
Cbc0038I Rounding solution of 3.48916e+07 is better than previous of 3.5158e+07

Cbc0038I Before mini branch and bound, 0 integers at bound fixed and 119 continuous
Cbc0038I Full problem 24 rows 156 columns, reduced to 20 rows 33 columns
Cbc0038I Mini branch and bound improved solution from 3.48916e+07 to 3.34571e+07 (0.01 seconds)
Cbc0038I Round again with cutoff of 2.61922e+07
Cbc0038I Pass  32: suminf.    1.00841 (11) obj. 2.61922e+07 iterations 1
Cbc0038I Pass  33: suminf.    0.41867 (4) obj. 2.61922e+07 iterations 11
Cbc0038I Pass  34: suminf.    0.24535 (4) obj. 2.61922e+07 iterations 1
Cbc0038I Pass  35: suminf.    0.41867 (4) obj. 2.61922e+07 iterations 2
Cbc0038I Pass  36: suminf.    0.18304 (4) obj. 2.61922e+07 iterations 1
Cbc0038I Pass  37: suminf.    0.26491 (5) obj. 2.61922e+07 iterations 8
Cbc0038I Pass  38: suminf.    0.41867 (4) obj. 2.61922e+07 iterations 7
Cbc0038I Pass  39: suminf.    0.21421 (4) obj. 2.61922e+07 iterations 1
Cbc0038I Pass  40: suminf.    0.48800 (4) obj. 2.61922e+07 iterations 10
Cbc0038I Pass  41: suminf.    0.41867 (4) obj. 2.61922e+07 iterations 8
Cbc0038I Pass  42: suminf.    0.21449 (4) obj. 2.61922e+07 iterations 11
Cbc0038I Pass  43: suminf.    0.41867 (4) obj. 2.61922e+07 iterations 7
Cbc0038I Pass  44: suminf.    0.39653 (4) obj. 2.61922e+07 iterations 1
Cbc0038I Pass  45: suminf.    0.41867 (4) obj. 2.61922e+07 iterations 5
Cbc0038I Pass  46: suminf.    0.18304 (4) obj. 2.61922e+07 iterations 1
Cbc0038I Pass  47: suminf.    0.14139 (5) obj. 2.61922e+07 iterations 5
Cbc0038I Pass  48: suminf.    0.41867 (4) obj. 2.61922e+07 iterations 5
Cbc0038I Pass  49: suminf.    0.24535 (4) obj. 2.61922e+07 iterations 1
Cbc0038I Pass  50: suminf.    0.31040 (3) obj. 2.61922e+07 iterations 3
Cbc0038I Pass  51: suminf.    0.41867 (4) obj. 2.61922e+07 iterations 4
Cbc0038I Pass  52: suminf.    0.41867 (4) obj. 2.61922e+07 iterations 0
Cbc0038I Pass  53: suminf.    0.34093 (4) obj. 2.61922e+07 iterations 8
Cbc0038I Pass  54: suminf.    0.41867 (4) obj. 2.61922e+07 iterations 7
Cbc0038I Pass  55: suminf.    0.17532 (4) obj. 2.61922e+07 iterations 1
Cbc0038I Pass  56: suminf.    0.41867 (4) obj. 2.61922e+07 iterations 4
Cbc0038I Pass  57: suminf.    0.18304 (4) obj. 2.61922e+07 iterations 1
Cbc0038I Pass  58: suminf.    0.18304 (4) obj. 2.61922e+07 iterations 0
Cbc0038I Pass  59: suminf.    0.20373 (4) obj. 2.61922e+07 iterations 2
Cbc0038I Pass  60: suminf.    0.41867 (4) obj. 2.61922e+07 iterations 4
Cbc0038I Pass  61: suminf.    0.17909 (5) obj. 2.61922e+07 iterations 9
Cbc0038I No solution found this major pass
Cbc0038I Before mini branch and bound, 0 integers at bound fixed and 118 continuous
Cbc0038I Full problem 24 rows 156 columns, reduced to 18 rows 32 columns
Cbc0038I Mini branch and bound did not improve solution (0.02 seconds)
Cbc0038I After 0.02 seconds - Feasibility pump exiting with objective of 3.34571e+07 - took 0.02 seconds
Cbc0012I Integer solution of 33457087 found by feasibility pump after 0 iterations and 0 nodes (0.02 seconds)
Cbc0012I Integer solution of 32407016 found by DiveCoefficient after 0 iterations and 0 nodes (0.02 seconds)
Cbc0012I Integer solution of 31896043 found by DiveCoefficient after 13 iterations and 0 nodes (0.02 seconds)
Cbc0031I 13 added rows had average density of 13.846154
Cbc0013I At root node, 13 cuts changed objective from 3137368.3 to 29555764 in 3 passes
Cbc0014I Cut generator 0 (Probing) - 3 row cuts average 2.0 elements, 0 column cuts (0 active)  in 0.000 seconds - new frequency is 1
Cbc0014I Cut generator 1 (Gomory) - 13 row cuts average 13.8 elements, 0 column cuts (0 active)  in 0.000 seconds - new frequency is 1
Cbc0014I Cut generator 2 (Knapsack) - 0 row cuts average 0.0 elements, 0 column cuts (0 active)  in 0.000 seconds - new frequency is -100
Cbc0014I Cut generator 3 (Clique) - 0 row cuts average 0.0 elements, 0 column cuts (0 active)  in 0.000 seconds - new frequency is -100
Cbc0014I Cut generator 4 (MixedIntegerRounding2) - 0 row cuts average 0.0 elements, 0 column cuts (0 active)  in 0.000 seconds - new frequency is -100
Cbc0014I Cut generator 5 (FlowCover) - 0 row cuts average 0.0 elements, 0 column cuts (0 active)  in 0.000 seconds - new frequency is -100
Cbc0014I Cut generator 6 (TwoMirCuts) - 14 row cuts average 14.6 elements, 0 column cuts (0 active)  in 0.000 seconds - new frequency is 1
Cbc0016I Integer solution of 29865459 found by strong branching after 14 iterations and 0 nodes (0.02 seconds)
Cbc0001I Search completed - best objective 29865459.29853761, took 14 iterations and 0 nodes (0.02 seconds)
Cbc0032I Strong branching done 4 times (8 iterations), fathomed 1 nodes and fixed 0 variables
Cbc0035I Maximum depth 0, 0 variables fixed on reduced cost
Cuts at root node changed objective from 3.13737e+06 to 3.09916e+07
Probing was tried 3 times and created 3 cuts of which 0 were active after adding rounds of cuts (0.000 seconds)
Gomory was tried 3 times and created 13 cuts of which 0 were active after adding rounds of cuts (0.000 seconds)
Knapsack was tried 3 times and created 0 cuts of which 0 were active after adding rounds of cuts (0.000 seconds)
Clique was tried 3 times and created 0 cuts of which 0 were active after adding rounds of cuts (0.000 seconds)
MixedIntegerRounding2 was tried 3 times and created 0 cuts of which 0 were active after adding rounds of cuts (0.000 seconds)
FlowCover was tried 3 times and created 0 cuts of which 0 were active after adding rounds of cuts (0.000 seconds)
TwoMirCuts was tried 3 times and created 14 cuts of which 0 were active after adding rounds of cuts (0.000 seconds)
ZeroHalf was tried 1 times and created 0 cuts of which 0 were active after adding rounds of cuts (0.000 seconds)

Result - Optimal solution found

Objective value:                29865459.29853761
Enumerated nodes:               0
Total iterations:               14
Time (CPU seconds):             0.03
Time (Wallclock seconds):       0.03

Option for printingOptions changed from normal to all
Total time (CPU seconds):       0.03   (Wallclock seconds):       0.03

